c generated by sgen
p cnf 89 188
-2 -3 -4 0
-1 -3 -4 0
-1 -2 -4 0
-1 -2 -3 0
-6 -7 -8 0
-5 -7 -8 0
-5 -6 -8 0
-5 -6 -7 0
-10 -11 -12 0
-9 -11 -12 0
-9 -10 -12 0
-9 -10 -11 0
-14 -15 -16 0
-13 -15 -16 0
-13 -14 -16 0
-13 -14 -15 0
-18 -19 -20 0
-17 -19 -20 0
-17 -18 -20 0
-17 -18 -19 0
-22 -23 -24 0
-21 -23 -24 0
-21 -22 -24 0
-21 -22 -23 0
-26 -27 -28 0
-25 -27 -28 0
-25 -26 -28 0
-25 -26 -27 0
-30 -31 -32 0
-29 -31 -32 0
-29 -30 -32 0
-29 -30 -31 0
-34 -35 -36 0
-33 -35 -36 0
-33 -34 -36 0
-33 -34 -35 0
-38 -39 -40 0
-37 -39 -40 0
-37 -38 -40 0
-37 -38 -39 0
-42 -43 -44 0
-41 -43 -44 0
-41 -42 -44 0
-41 -42 -43 0
-46 -47 -48 0
-45 -47 -48 0
-45 -46 -48 0
-45 -46 -47 0
-50 -51 -52 0
-49 -51 -52 0
-49 -50 -52 0
-49 -50 -51 0
-54 -55 -56 0
-53 -55 -56 0
-53 -54 -56 0
-53 -54 -55 0
-58 -59 -60 0
-57 -59 -60 0
-57 -58 -60 0
-57 -58 -59 0
-62 -63 -64 0
-61 -63 -64 0
-61 -62 -64 0
-61 -62 -63 0
-66 -67 -68 0
-65 -67 -68 0
-65 -66 -68 0
-65 -66 -67 0
-70 -71 -72 0
-69 -71 -72 0
-69 -70 -72 0
-69 -70 -71 0
-74 -75 -76 0
-73 -75 -76 0
-73 -74 -76 0
-73 -74 -75 0
-78 -79 -80 0
-77 -79 -80 0
-77 -78 -80 0
-77 -78 -79 0
-82 -83 -84 0
-81 -83 -84 0
-81 -82 -84 0
-81 -82 -83 0
-85 -86 -87 0
-85 -86 -88 0
-85 -86 -89 0
-85 -87 -88 0
-85 -87 -89 0
-85 -88 -89 0
-86 -87 -88 0
-86 -87 -89 0
-86 -88 -89 0
-87 -88 -89 0
34 1 42 0
48 1 42 0
48 34 42 0
48 34 1 0
23 49 65 0
16 49 65 0
16 23 65 0
16 23 49 0
63 85 7 0
24 85 7 0
24 63 7 0
24 63 85 0
82 74 10 0
57 74 10 0
57 82 10 0
57 82 74 0
20 44 9 0
67 44 9 0
67 20 9 0
67 20 44 0
59 8 79 0
68 8 79 0
68 59 79 0
68 59 8 0
73 45 32 0
22 45 32 0
22 73 32 0
22 73 45 0
40 75 6 0
19 75 6 0
19 40 6 0
19 40 75 0
83 38 56 0
66 38 56 0
66 83 56 0
66 83 38 0
64 18 28 0
14 18 28 0
14 64 28 0
14 64 18 0
3 52 84 0
61 52 84 0
61 3 84 0
61 3 52 0
81 31 88 0
25 31 88 0
25 81 88 0
25 81 31 0
5 53 33 0
27 53 33 0
27 5 33 0
27 5 53 0
58 46 69 0
26 46 69 0
26 58 69 0
26 58 46 0
39 36 12 0
71 36 12 0
71 39 12 0
71 39 36 0
60 15 2 0
89 15 2 0
89 60 2 0
89 60 15 0
80 11 21 0
4 11 21 0
4 80 21 0
4 80 11 0
55 87 72 0
43 87 72 0
43 55 72 0
43 55 87 0
51 78 54 0
47 78 54 0
47 51 54 0
47 51 78 0
70 50 17 0
29 50 17 0
29 70 17 0
29 70 50 0
37 62 41 0
30 62 41 0
30 37 41 0
30 37 62 0
77 13 76 0
77 13 86 0
77 13 35 0
77 76 86 0
77 76 35 0
77 86 35 0
13 76 86 0
13 76 35 0
13 86 35 0
76 86 35 0
